outputs/case_310.model.txt
capital_adequacy_ratio = 45
net_worth_ratio_prev = -5
net_worth_ratio_below_0 = True
net_worth_ratio = -5
net_worth = -1000000
car_below_50 = True
net_worth_ratio_below_2 = True
internal_control_system_established = True
internal_control_system_executed = True
internal_handling_system_established = True
internal_handling_system_executed = True
net_worth_ratio_above_or_equal_0 = False
internal_handling_established = True
car_above_or_equal_200 = False
capital_significantly_insufficient = False
capital_adequate = False
internal_handling_compliance = True
net_worth_ratio_above_or_equal_2 = False
capital_severely_insufficient = True
capital_level = 4
internal_control_executed = True
car_150_to_200 = False
internal_control_compliance = True
penalty = False
car_50_to_150 = False
internal_handling_executed = True
internal_control_established = True
net_worth_ratio_above_or_equal_3 = False
net_worth_ratio_low = False
capital_insufficient = False